# SCIP version 6.0.0.2

# frequency for calling separator <rapidlearning> (-1: never, 0: only in root node)
# [type: int, advanced: FALSE, range: [-1,65534], default: -1]
separating/rapidlearning/freq = 0

# should the local objective function be checked?
# [type: bool, advanced: TRUE, range: {TRUE,FALSE}, default: FALSE]
separating/rapidlearning/checklocalobj = TRUE

